CAV19/chc/CAV/64bits_signed/32bits_unsignedcegis_danger_benchmark_svcomp_underapprox_true-unreach-call1.sl_32bits_unsigned.sl_64bits_signed.smt2
(set-logic HORN)
(declare-fun inv ((_ BitVec 64) (_ BitVec 64) ) Bool)
(assert (forall ((x (_ BitVec 64)) (y (_ BitVec 64))) 
       (=> ( and ( = x #x00000000 ) ( = y #x00000001 ) ) (inv x y))))
(assert (forall ((x (_ BitVec 64)) (y (_ BitVec 64)) (x! (_ BitVec 64)) (y! (_ BitVec 64))) 
       (=> (and (inv x y) ( and ( bvslt x #x00000006 ) ( = x! ( bvadd x #x00000001 ) ) ( = y! ( bvmul y #x00000002 ) ) )) (inv x! y!))))
(assert (forall ((x (_ BitVec 64)) (y (_ BitVec 64))) 
       (=> (inv x y) ( or ( = #x00000001 ( bvurem y #x00000003 ) ) ( bvslt x #x00000006 ) ))))
(check-sat)
